! RFSim95 S parameter simulation result
# MHz MA
0.001000 1.000 179.998 0.000 -90.002 0.000 -90.002 1.000 179.998 
0.001033 1.000 179.998 0.000 -90.002 0.000 -90.002 1.000 179.998 
0.001067 1.000 179.998 0.000 -90.002 0.000 -90.002 1.000 179.998 
0.001102 1.000 179.998 0.000 -90.002 0.000 -90.002 1.000 179.998 
0.001138 1.000 179.998 0.000 -90.002 0.000 -90.002 1.000 179.998 
0.001175 1.000 179.997 0.000 -90.003 0.000 -90.003 1.000 179.997 
0.001214 1.000 179.997 0.000 -90.003 0.000 -90.003 1.000 179.997 
0.001254 1.000 179.997 0.000 -90.003 0.000 -90.003 1.000 179.997 
0.001295 1.000 179.997 0.000 -90.003 0.000 -90.003 1.000 179.997 
0.001337 1.000 179.997 0.000 -90.003 0.000 -90.003 1.000 179.997 
0.001381 1.000 179.997 0.000 -90.003 0.000 -90.003 1.000 179.997 
0.001427 1.000 179.997 0.000 -90.003 0.000 -90.003 1.000 179.997 
0.001473 1.000 179.997 0.000 -90.003 0.000 -90.003 1.000 179.997 
0.001522 1.000 179.997 0.000 -90.003 0.000 -90.003 1.000 179.997 
0.001572 1.000 179.997 0.000 -90.003 0.000 -90.003 1.000 179.997 
0.001623 1.000 179.996 0.000 -90.004 0.000 -90.004 1.000 179.996 
0.001677 1.000 179.996 0.000 -90.004 0.000 -90.004 1.000 179.996 
0.001732 1.000 179.996 0.000 -90.004 0.000 -90.004 1.000 179.996 
0.001789 1.000 179.996 0.000 -90.004 0.000 -90.004 1.000 179.996 
0.001847 1.000 179.996 0.000 -90.004 0.000 -90.004 1.000 179.996 
0.001908 1.000 179.996 0.000 -90.004 0.000 -90.004 1.000 179.996 
0.001971 1.000 179.996 0.000 -90.004 0.000 -90.004 1.000 179.996 
0.002035 1.000 179.996 0.000 -90.004 0.000 -90.004 1.000 179.996 
0.002102 1.000 179.995 0.000 -90.005 0.000 -90.005 1.000 179.995 
0.002171 1.000 179.995 0.000 -90.005 0.000 -90.005 1.000 179.995 
0.002242 1.000 179.995 0.000 -90.005 0.000 -90.005 1.000 179.995 
0.002316 1.000 179.995 0.000 -90.005 0.000 -90.005 1.000 179.995 
0.002392 1.000 179.995 0.000 -90.005 0.000 -90.005 1.000 179.995 
0.002471 1.000 179.995 0.000 -90.005 0.000 -90.005 1.000 179.995 
0.002552 1.000 179.994 0.000 -90.006 0.000 -90.006 1.000 179.994 
0.002635 1.000 179.994 0.000 -90.006 0.000 -90.006 1.000 179.994 
0.002722 1.000 179.994 0.000 -90.006 0.000 -90.006 1.000 179.994 
0.002811 1.000 179.994 0.000 -90.006 0.000 -90.006 1.000 179.994 
0.002904 1.000 179.994 0.000 -90.006 0.000 -90.006 1.000 179.994 
0.002999 1.000 179.994 0.000 -90.006 0.000 -90.006 1.000 179.994 
0.003097 1.000 179.993 0.000 -90.007 0.000 -90.007 1.000 179.993 
0.003199 1.000 179.993 0.000 -90.007 0.000 -90.007 1.000 179.993 
0.003304 1.000 179.993 0.000 -90.007 0.000 -90.007 1.000 179.993 
0.003412 1.000 179.993 0.000 -90.007 0.000 -90.007 1.000 179.993 
0.003524 1.000 179.992 0.000 -90.008 0.000 -90.008 1.000 179.992 
0.003640 1.000 179.992 0.000 -90.008 0.000 -90.008 1.000 179.992 
0.003760 1.000 179.992 0.000 -90.008 0.000 -90.008 1.000 179.992 
0.003883 1.000 179.992 0.000 -90.008 0.000 -90.008 1.000 179.992 
0.004011 1.000 179.991 0.000 -90.009 0.000 -90.009 1.000 179.991 
0.004142 1.000 179.991 0.000 -90.009 0.000 -90.009 1.000 179.991 
0.004278 1.000 179.991 0.000 -90.009 0.000 -90.009 1.000 179.991 
0.004419 1.000 179.990 0.000 -90.010 0.000 -90.010 1.000 179.990 
0.004564 1.000 179.990 0.000 -90.010 0.000 -90.010 1.000 179.990 
0.004714 1.000 179.990 0.000 -90.010 0.000 -90.010 1.000 179.990 
0.004868 1.000 179.989 0.000 -90.011 0.000 -90.011 1.000 179.989 
0.005028 1.000 179.989 0.000 -90.011 0.000 -90.011 1.000 179.989 
0.005193 1.000 179.989 0.000 -90.011 0.000 -90.011 1.000 179.989 
0.005364 1.000 179.988 0.000 -90.012 0.000 -90.012 1.000 179.988 
0.005540 1.000 179.988 0.000 -90.012 0.000 -90.012 1.000 179.988 
0.005722 1.000 179.988 0.000 -90.012 0.000 -90.012 1.000 179.988 
0.005909 1.000 179.987 0.000 -90.013 0.000 -90.013 1.000 179.987 
0.006103 1.000 179.987 0.000 -90.013 0.000 -90.013 1.000 179.987 
0.006304 1.000 179.986 0.000 -90.014 0.000 -90.014 1.000 179.986 
0.006511 1.000 179.986 0.000 -90.014 0.000 -90.014 1.000 179.986 
0.006724 1.000 179.985 0.000 -90.015 0.000 -90.015 1.000 179.985 
0.006945 1.000 179.985 0.000 -90.015 0.000 -90.015 1.000 179.985 
0.007173 1.000 179.985 0.000 -90.015 0.000 -90.015 1.000 179.985 
0.007409 1.000 179.984 0.000 -90.016 0.000 -90.016 1.000 179.984 
0.007652 1.000 179.983 0.000 -90.017 0.000 -90.017 1.000 179.983 
0.007903 1.000 179.983 0.000 -90.017 0.000 -90.017 1.000 179.983 
0.008163 1.000 179.982 0.000 -90.018 0.000 -90.018 1.000 179.982 
0.008430 1.000 179.982 0.000 -90.018 0.000 -90.018 1.000 179.982 
0.008707 1.000 179.981 0.000 -90.019 0.000 -90.019 1.000 179.981 
0.008993 1.000 179.981 0.000 -90.019 0.000 -90.019 1.000 179.981 
0.009288 1.000 179.980 0.000 -90.020 0.000 -90.020 1.000 179.980 
0.009593 1.000 179.979 0.000 -90.021 0.000 -90.021 1.000 179.979 
0.009908 1.000 179.979 0.000 -90.021 0.000 -90.021 1.000 179.979 
0.010233 1.000 179.978 0.000 -90.022 0.000 -90.022 1.000 179.978 
0.010569 1.000 179.977 0.000 -90.023 0.000 -90.023 1.000 179.977 
0.010916 1.000 179.976 0.000 -90.024 0.000 -90.024 1.000 179.976 
0.011275 1.000 179.976 0.000 -90.024 0.000 -90.024 1.000 179.976 
0.011645 1.000 179.975 0.000 -90.025 0.000 -90.025 1.000 179.975 
0.012027 1.000 179.974 0.000 -90.026 0.000 -90.026 1.000 179.974 
0.012422 1.000 179.973 0.000 -90.027 0.000 -90.027 1.000 179.973 
0.012830 1.000 179.972 0.000 -90.028 0.000 -90.028 1.000 179.972 
0.013251 1.000 179.971 0.000 -90.029 0.000 -90.029 1.000 179.971 
0.013686 1.000 179.970 0.000 -90.030 0.000 -90.030 1.000 179.970 
0.014135 1.000 179.969 0.000 -90.031 0.000 -90.031 1.000 179.969 
0.014599 1.000 179.968 0.000 -90.032 0.000 -90.032 1.000 179.968 
0.015078 1.000 179.967 0.000 -90.033 0.000 -90.033 1.000 179.967 
0.015573 1.000 179.966 0.000 -90.034 0.000 -90.034 1.000 179.966 
0.016085 1.000 179.965 0.000 -90.035 0.000 -90.035 1.000 179.965 
0.016613 1.000 179.964 0.000 -90.036 0.000 -90.036 1.000 179.964 
0.017158 1.000 179.963 0.000 -90.037 0.000 -90.037 1.000 179.963 
0.017721 1.000 179.962 0.000 -90.038 0.000 -90.038 1.000 179.962 
0.018303 1.000 179.960 0.000 -90.040 0.000 -90.040 1.000 179.960 
0.018904 1.000 179.959 0.000 -90.041 0.000 -90.041 1.000 179.959 
0.019525 1.000 179.958 0.000 -90.042 0.000 -90.042 1.000 179.958 
0.020166 1.000 179.956 0.000 -90.044 0.000 -90.044 1.000 179.956 
0.020828 1.000 179.955 0.000 -90.045 0.000 -90.045 1.000 179.955 
0.021511 1.000 179.954 0.000 -90.046 0.000 -90.046 1.000 179.954 
0.022217 1.000 179.952 0.000 -90.048 0.000 -90.048 1.000 179.952 
0.022947 1.000 179.950 0.000 -90.050 0.000 -90.050 1.000 179.950 
0.023700 1.000 179.949 0.000 -90.051 0.000 -90.051 1.000 179.949 
0.024478 1.000 179.947 0.000 -90.053 0.000 -90.053 1.000 179.947 
0.025282 1.000 179.945 0.000 -90.055 0.000 -90.055 1.000 179.945 
0.026112 1.000 179.944 0.000 -90.056 0.000 -90.056 1.000 179.944 
0.026969 1.000 179.942 0.000 -90.058 0.000 -90.058 1.000 179.942 
0.027854 1.000 179.940 0.000 -90.060 0.000 -90.060 1.000 179.940 
0.028769 1.000 179.938 0.000 -90.062 0.000 -90.062 1.000 179.938 
0.029713 1.000 179.936 0.000 -90.064 0.000 -90.064 1.000 179.936 
0.030688 1.000 179.934 0.000 -90.066 0.000 -90.066 1.000 179.934 
0.031696 1.000 179.932 0.000 -90.068 0.000 -90.068 1.000 179.932 
0.032736 1.000 179.929 0.000 -90.071 0.000 -90.071 1.000 179.929 
0.033811 1.000 179.927 0.000 -90.073 0.000 -90.073 1.000 179.927 
0.034921 1.000 179.925 0.000 -90.075 0.000 -90.075 1.000 179.925 
0.036067 1.000 179.922 0.000 -90.078 0.000 -90.078 1.000 179.922 
0.037251 1.000 179.920 0.000 -90.080 0.000 -90.080 1.000 179.920 
0.038474 1.000 179.917 0.000 -90.083 0.000 -90.083 1.000 179.917 
0.039737 1.000 179.914 0.000 -90.086 0.000 -90.086 1.000 179.914 
0.041042 1.000 179.911 0.000 -90.089 0.000 -90.089 1.000 179.911 
0.042389 1.000 179.908 0.000 -90.092 0.000 -90.092 1.000 179.908 
0.043781 1.000 179.905 0.000 -90.095 0.000 -90.095 1.000 179.905 
0.045218 1.000 179.902 0.000 -90.098 0.000 -90.098 1.000 179.902 
0.046702 1.000 179.899 0.000 -90.101 0.000 -90.101 1.000 179.899 
0.048235 1.000 179.896 0.000 -90.104 0.000 -90.104 1.000 179.896 
0.049819 1.000 179.892 0.000 -90.108 0.000 -90.108 1.000 179.892 
0.051454 1.000 179.889 0.000 -90.111 0.000 -90.111 1.000 179.889 
0.053144 1.000 179.885 0.000 -90.115 0.000 -90.115 1.000 179.885 
0.054888 1.000 179.881 0.000 -90.119 0.000 -90.119 1.000 179.881 
0.056690 1.000 179.878 0.000 -90.122 0.000 -90.122 1.000 179.878 
0.058551 1.000 179.874 0.000 -90.126 0.000 -90.126 1.000 179.874 
0.060473 1.000 179.869 0.000 -90.131 0.000 -90.131 1.000 179.869 
0.062458 1.000 179.865 0.000 -90.135 0.000 -90.135 1.000 179.865 
0.064509 1.000 179.861 0.000 -90.139 0.000 -90.139 1.000 179.861 
0.066627 1.000 179.856 0.000 -90.144 0.000 -90.144 1.000 179.856 
0.068814 1.000 179.851 0.000 -90.149 0.000 -90.149 1.000 179.851 
0.071073 1.000 179.846 0.000 -90.154 0.000 -90.154 1.000 179.846 
0.073406 1.000 179.841 0.000 -90.159 0.000 -90.159 1.000 179.841 
0.075816 1.000 179.836 0.000 -90.164 0.000 -90.164 1.000 179.836 
0.078305 1.000 179.831 0.000 -90.169 0.000 -90.169 1.000 179.831 
0.080875 1.000 179.825 0.000 -90.175 0.000 -90.175 1.000 179.825 
0.083530 1.000 179.820 0.000 -90.180 0.000 -90.180 1.000 179.820 
0.086272 1.000 179.814 0.000 -90.186 0.000 -90.186 1.000 179.814 
0.089105 1.000 179.808 0.000 -90.192 0.000 -90.192 1.000 179.808 
0.092030 1.000 179.801 0.000 -90.199 0.000 -90.199 1.000 179.801 
0.095051 1.000 179.795 0.000 -90.205 0.000 -90.205 1.000 179.795 
0.098171 1.000 179.788 0.000 -90.212 0.000 -90.212 1.000 179.788 
0.101394 1.000 179.781 0.000 -90.219 0.000 -90.219 1.000 179.781 
0.104723 1.000 179.774 0.000 -90.226 0.000 -90.226 1.000 179.774 
0.108160 1.000 179.766 0.000 -90.234 0.000 -90.234 1.000 179.766 
0.111711 1.000 179.759 0.000 -90.241 0.000 -90.241 1.000 179.759 
0.115378 1.000 179.751 0.000 -90.249 0.000 -90.249 1.000 179.751 
0.119166 1.000 179.743 0.000 -90.257 0.000 -90.257 1.000 179.743 
0.123078 1.000 179.734 0.000 -90.266 0.000 -90.266 1.000 179.734 
0.127118 1.000 179.725 0.000 -90.275 0.000 -90.275 1.000 179.725 
0.131291 1.000 179.716 0.000 -90.284 0.000 -90.284 1.000 179.716 
0.135602 1.000 179.707 0.000 -90.293 0.000 -90.293 1.000 179.707 
0.140053 1.000 179.697 0.000 -90.303 0.000 -90.303 1.000 179.697 
0.144651 1.000 179.688 0.000 -90.312 0.000 -90.312 1.000 179.688 
0.149399 1.000 179.677 0.000 -90.323 0.000 -90.323 1.000 179.677 
0.154304 1.000 179.667 0.000 -90.333 0.000 -90.333 1.000 179.667 
0.159369 1.000 179.656 0.000 -90.344 0.000 -90.344 1.000 179.656 
0.164601 1.000 179.644 0.000 -90.356 0.000 -90.356 1.000 179.644 
0.170005 1.000 179.633 0.000 -90.367 0.000 -90.367 1.000 179.633 
0.175586 1.000 179.621 0.000 -90.379 0.000 -90.379 1.000 179.621 
0.181350 1.000 179.608 0.000 -90.392 0.000 -90.392 1.000 179.608 
0.187303 1.000 179.595 0.000 -90.405 0.000 -90.405 1.000 179.595 
0.193452 1.000 179.582 0.000 -90.418 0.000 -90.418 1.000 179.582 
0.199803 1.000 179.568 0.000 -90.432 0.000 -90.432 1.000 179.568 
0.206362 1.000 179.554 0.000 -90.446 0.000 -90.446 1.000 179.554 
0.213136 1.000 179.540 0.000 -90.460 0.000 -90.460 1.000 179.540 
0.220133 1.000 179.525 0.000 -90.475 0.000 -90.475 1.000 179.525 
0.227360 1.000 179.509 0.000 -90.491 0.000 -90.491 1.000 179.509 
0.234823 1.000 179.493 0.000 -90.507 0.000 -90.507 1.000 179.493 
0.242532 1.000 179.476 0.000 -90.524 0.000 -90.524 1.000 179.476 
0.250494 1.000 179.459 0.000 -90.541 0.000 -90.541 1.000 179.459 
0.258717 1.000 179.441 0.000 -90.559 0.000 -90.559 1.000 179.441 
0.267211 1.000 179.423 0.000 -90.577 0.000 -90.577 1.000 179.423 
0.275983 1.000 179.404 0.000 -90.596 0.000 -90.596 1.000 179.404 
0.285043 1.000 179.384 0.000 -90.616 0.000 -90.616 1.000 179.384 
0.294400 1.000 179.364 0.000 -90.636 0.000 -90.636 1.000 179.364 
0.304065 1.000 179.343 0.000 -90.657 0.000 -90.657 1.000 179.343 
0.314047 1.000 179.322 0.000 -90.678 0.000 -90.678 1.000 179.322 
0.324356 1.000 179.299 0.000 -90.701 0.000 -90.701 1.000 179.299 
0.335004 1.000 179.276 0.000 -90.724 0.000 -90.724 1.000 179.276 
0.346002 1.000 179.253 0.000 -90.747 0.000 -90.747 1.000 179.253 
0.357360 1.000 179.228 0.000 -90.772 0.000 -90.772 1.000 179.228 
0.369092 1.000 179.203 0.000 -90.797 0.000 -90.797 1.000 179.203 
0.381208 1.000 179.177 0.000 -90.823 0.000 -90.823 1.000 179.177 
0.393723 1.000 179.150 0.000 -90.850 0.000 -90.850 1.000 179.150 
0.406648 1.000 179.122 0.000 -90.878 0.000 -90.878 1.000 179.122 
0.419997 1.000 179.093 0.000 -90.907 0.000 -90.907 1.000 179.093 
0.433785 1.000 179.063 0.000 -90.937 0.000 -90.937 1.000 179.063 
0.448025 1.000 179.032 0.000 -90.968 0.000 -90.968 1.000 179.032 
0.462733 1.000 179.001 0.000 -90.999 0.000 -90.999 1.000 179.001 
0.477924 1.000 178.968 0.000 -91.032 0.000 -91.032 1.000 178.968 
0.493613 1.000 178.934 0.000 -91.066 0.000 -91.066 1.000 178.934 
0.509818 1.000 178.899 0.000 -91.101 0.000 -91.101 1.000 178.899 
0.526554 1.000 178.863 0.000 -91.137 0.000 -91.137 1.000 178.863 
0.543840 1.000 178.825 0.000 -91.175 0.000 -91.175 1.000 178.825 
0.561693 1.000 178.787 0.000 -91.213 0.000 -91.213 1.000 178.787 
0.580132 1.000 178.747 0.000 -91.253 0.000 -91.253 1.000 178.747 
0.599177 1.000 178.706 0.000 -91.294 0.000 -91.294 1.000 178.706 
0.618847 1.000 178.663 0.000 -91.337 0.000 -91.337 1.000 178.663 
0.639162 1.000 178.619 0.000 -91.381 0.000 -91.381 1.000 178.619 
0.660145 1.000 178.574 0.000 -91.426 0.000 -91.426 1.000 178.574 
0.681816 1.000 178.527 0.000 -91.473 0.000 -91.473 1.000 178.527 
0.704199 1.000 178.479 0.000 -91.521 0.000 -91.521 1.000 178.479 
0.727317 1.000 178.429 0.000 -91.571 0.000 -91.571 1.000 178.429 
0.751193 1.000 178.378 0.000 -91.622 0.000 -91.622 1.000 178.378 
0.775853 1.000 178.324 0.000 -91.676 0.000 -91.676 1.000 178.324 
0.801323 1.000 178.269 0.000 -91.731 0.000 -91.731 1.000 178.269 
0.827629 1.000 178.212 0.000 -91.788 0.000 -91.788 1.000 178.212 
0.854798 1.000 178.154 0.000 -91.846 0.000 -91.846 1.000 178.154 
0.882860 1.000 178.093 0.000 -91.907 0.000 -91.907 1.000 178.093 
0.911843 1.000 178.031 0.000 -91.969 0.000 -91.969 1.000 178.031 
0.941777 1.000 177.966 0.000 -92.034 0.000 -92.034 1.000 177.966 
0.972693 1.000 177.899 0.000 -92.101 0.000 -92.101 1.000 177.899 
1.004625 1.000 177.830 0.000 -92.170 0.000 -92.170 1.000 177.830 
1.037605 1.000 177.759 0.000 -92.241 0.000 -92.241 1.000 177.759 
1.071668 1.000 177.685 0.000 -92.315 0.000 -92.315 1.000 177.685 
1.106848 1.000 177.610 0.000 -92.390 0.000 -92.390 1.000 177.610 
1.143184 1.000 177.531 0.000 -92.469 0.000 -92.469 1.000 177.531 
1.180713 1.000 177.450 0.000 -92.550 0.000 -92.550 1.000 177.450 
1.219473 1.000 177.366 0.000 -92.634 0.000 -92.634 1.000 177.366 
1.259506 1.000 177.280 0.000 -92.720 0.000 -92.720 1.000 177.280 
1.300854 1.000 177.191 0.000 -92.809 0.000 -92.809 1.000 177.191 
1.343558 1.000 177.099 0.000 -92.901 0.000 -92.901 1.000 177.099 
1.387665 1.000 177.003 0.000 -92.997 0.000 -92.997 1.000 177.003 
1.433219 1.000 176.905 0.000 -93.095 0.000 -93.095 1.000 176.905 
1.480269 1.000 176.803 0.000 -93.197 0.000 -93.197 1.000 176.803 
1.528864 1.000 176.699 0.000 -93.301 0.000 -93.301 1.000 176.699 
1.579053 1.000 176.590 0.000 -93.410 0.000 -93.410 1.000 176.590 
1.630891 1.000 176.478 0.000 -93.522 0.000 -93.522 1.000 176.478 
1.684430 1.000 176.363 0.000 -93.637 0.000 -93.637 1.000 176.363 
1.739726 1.000 176.243 0.000 -93.757 0.000 -93.757 1.000 176.243 
1.796838 1.000 176.120 0.000 -93.880 0.000 -93.880 1.000 176.120 
1.855825 1.000 175.993 0.000 -94.007 0.000 -94.007 1.000 175.993 
1.916748 1.000 175.862 0.000 -94.138 0.000 -94.138 1.000 175.862 
1.979672 1.000 175.726 0.000 -94.274 0.000 -94.274 1.000 175.726 
2.044661 1.000 175.586 0.000 -94.414 0.000 -94.414 1.000 175.586 
2.111783 1.000 175.441 0.000 -94.559 0.000 -94.559 1.000 175.441 
2.181109 1.000 175.291 0.000 -94.709 0.000 -94.709 1.000 175.291 
2.252711 1.000 175.137 0.000 -94.863 0.000 -94.863 1.000 175.137 
2.326663 1.000 174.977 0.000 -95.023 0.000 -95.023 1.000 174.977 
2.403043 1.000 174.813 0.000 -95.187 0.000 -95.187 1.000 174.813 
2.481930 1.000 174.643 0.000 -95.357 0.000 -95.357 1.000 174.643 
2.563407 1.000 174.467 0.000 -95.533 0.000 -95.533 1.000 174.467 
2.647559 1.000 174.286 0.000 -95.714 0.000 -95.714 1.000 174.286 
2.734474 1.000 174.098 0.000 -95.902 0.000 -95.902 1.000 174.098 
2.824241 1.000 173.905 0.000 -96.095 0.000 -96.095 1.000 173.905 
2.916956 1.000 173.705 0.000 -96.295 0.000 -96.295 1.000 173.705 
3.012714 1.000 173.499 0.000 -96.501 0.000 -96.501 1.000 173.499 
3.111616 1.000 173.286 0.000 -96.714 0.000 -96.714 1.000 173.286 
3.213764 1.000 173.066 0.000 -96.934 0.000 -96.934 1.000 173.066 
3.319266 1.000 172.839 0.000 -97.161 0.000 -97.161 1.000 172.839 
3.428231 1.000 172.605 0.000 -97.395 0.000 -97.395 1.000 172.605 
3.540774 1.000 172.363 0.000 -97.637 0.000 -97.637 1.000 172.363 
3.657011 1.000 172.113 0.000 -97.887 0.000 -97.887 1.000 172.113 
3.777064 1.000 171.855 0.000 -98.145 0.000 -98.145 1.000 171.855 
3.901058 1.000 171.588 0.000 -98.412 0.000 -98.412 1.000 171.588 
4.029122 1.000 171.313 0.000 -98.687 0.000 -98.687 1.000 171.313 
4.161391 1.000 171.029 0.000 -98.971 0.000 -98.971 1.000 171.029 
4.298001 1.000 170.735 0.000 -99.265 0.000 -99.265 1.000 170.735 
4.439097 1.000 170.433 0.000 -99.567 0.000 -99.567 1.000 170.433 
4.584824 1.000 170.120 0.000 -99.880 0.000 -99.880 1.000 170.120 
4.735335 1.000 169.797 0.000 -100.203 0.000 -100.203 1.000 169.797 
4.890787 1.000 169.464 0.000 -100.536 0.000 -100.536 1.000 169.464 
5.051342 1.000 169.120 0.000 -100.880 0.000 -100.880 1.000 169.120 
5.217169 1.000 168.765 0.000 -101.235 0.000 -101.235 1.000 168.765 
5.388438 1.000 168.399 0.000 -101.601 0.000 -101.601 1.000 168.399 
5.565331 1.000 168.020 0.000 -101.980 0.000 -101.980 1.000 168.020 
5.748030 1.000 167.630 0.000 -102.370 0.000 -102.370 1.000 167.630 
5.936727 1.000 167.227 0.000 -102.773 0.000 -102.773 1.000 167.227 
6.131619 1.000 166.811 0.000 -103.189 0.000 -103.189 1.000 166.811 
6.332908 1.000 166.382 0.000 -103.618 0.000 -103.618 1.000 166.382 
6.540806 1.000 165.939 0.000 -104.061 0.000 -104.061 1.000 165.939 
6.755528 1.000 165.482 0.000 -104.518 0.000 -104.518 1.000 165.482 
6.977300 1.000 165.010 0.000 -104.990 0.000 -104.990 1.000 165.010 
7.206351 1.000 164.524 0.000 -105.476 0.000 -105.476 1.000 164.524 
7.442922 1.000 164.022 0.000 -105.978 0.000 -105.978 1.000 164.022 
7.687260 1.000 163.504 0.000 -106.496 0.000 -106.496 1.000 163.504 
7.939618 1.000 162.970 0.000 -107.030 0.000 -107.030 1.000 162.970 
8.200261 1.000 162.419 0.000 -107.581 0.000 -107.581 1.000 162.419 
8.469460 1.000 161.851 0.000 -108.149 0.000 -108.149 1.000 161.851 
8.747496 1.000 161.265 0.000 -108.735 0.000 -108.735 1.000 161.265 
9.034660 1.000 160.661 0.000 -109.339 0.000 -109.339 1.000 160.661 
9.331251 1.000 160.038 0.000 -109.962 0.000 -109.962 1.000 160.038 
9.637579 1.000 159.396 0.000 -110.604 0.000 -110.604 1.000 159.396 
9.953962 1.000 158.733 0.000 -111.267 0.000 -111.267 1.000 158.733 
10.280732 1.000 158.051 0.000 -111.949 0.000 -111.949 1.000 158.051 
10.618229 1.000 157.348 0.000 -112.652 0.000 -112.652 1.000 157.348 
10.966806 1.000 156.623 0.000 -113.377 0.000 -113.377 1.000 156.623 
11.326826 1.000 155.877 0.000 -114.123 0.000 -114.123 1.000 155.877 
11.698664 1.000 155.108 0.000 -114.892 0.000 -114.892 1.000 155.108 
12.082709 1.000 154.316 0.000 -115.684 0.000 -115.684 1.000 154.316 
12.479362 1.000 153.501 0.000 -116.499 0.000 -116.499 1.000 153.501 
12.889036 1.000 152.661 0.000 -117.339 0.000 -117.339 1.000 152.661 
13.312159 1.000 151.797 0.000 -118.203 0.000 -118.203 1.000 151.797 
13.749172 1.000 150.908 0.000 -119.092 0.000 -119.092 1.000 150.908 
14.200532 1.000 149.993 0.000 -120.007 0.000 -120.007 1.000 149.993 
14.666709 1.000 149.052 0.000 -120.948 0.000 -120.948 1.000 149.052 
15.148189 1.000 148.084 0.000 -121.916 0.000 -121.916 1.000 148.084 
15.645476 1.000 147.089 0.000 -122.911 0.000 -122.911 1.000 147.089 
16.159088 1.000 146.066 0.000 -123.934 0.000 -123.934 1.000 146.066 
16.689560 1.000 145.015 0.000 -124.985 0.000 -124.985 1.000 145.015 
17.237447 1.000 143.936 0.000 -126.064 0.000 -126.064 1.000 143.936 
17.803320 1.000 142.828 0.000 -127.172 0.000 -127.172 1.000 142.828 
18.387770 1.000 141.690 0.000 -128.310 0.000 -128.310 1.000 141.690 
18.991406 1.000 140.523 0.000 -129.477 0.000 -129.477 1.000 140.523 
19.614858 1.000 139.326 0.000 -130.674 0.000 -130.674 1.000 139.326 
20.258777 1.000 138.099 0.000 -131.901 0.000 -131.901 1.000 138.099 
20.923835 1.000 136.841 0.000 -133.159 0.000 -133.159 1.000 136.841 
21.610725 1.000 135.553 0.000 -134.447 0.000 -134.447 1.000 135.553 
22.320165 1.000 134.233 0.000 -135.767 0.000 -135.767 1.000 134.233 
23.052894 1.000 132.883 0.000 -137.117 0.000 -137.117 1.000 132.883 
23.809677 1.000 131.502 0.000 -138.498 0.000 -138.498 1.000 131.502 
24.591304 1.000 130.090 0.000 -139.910 0.000 -139.910 1.000 130.090 
25.398591 1.000 128.648 0.000 -141.352 0.000 -141.352 1.000 128.648 
26.232379 1.000 127.175 0.000 -142.825 0.000 -142.825 1.000 127.175 
27.093539 1.000 125.672 0.000 -144.328 0.000 -144.328 1.000 125.672 
27.982969 1.000 124.139 0.000 -145.861 0.000 -145.861 1.000 124.139 
28.901597 1.000 122.577 0.000 -147.423 0.000 -147.423 1.000 122.577 
29.850382 1.000 120.986 0.000 -149.014 0.000 -149.014 1.000 120.986 
30.830315 1.000 119.366 0.000 -150.634 0.000 -150.634 1.000 119.366 
31.842416 1.000 117.719 0.000 -152.281 0.000 -152.281 1.000 117.719 
32.887743 1.000 116.045 0.000 -153.955 0.000 -153.955 1.000 116.045 
33.967386 1.000 114.345 0.000 -155.655 0.000 -155.655 1.000 114.345 
35.082471 1.000 112.620 0.000 -157.380 0.000 -157.380 1.000 112.620 
36.234163 1.000 110.871 0.000 -159.129 0.000 -159.129 1.000 110.871 
37.423663 1.000 109.099 0.000 -160.901 0.000 -160.901 1.000 109.099 
38.652212 1.000 107.306 0.000 -162.694 0.000 -162.694 1.000 107.306 
39.921091 1.000 105.492 0.000 -164.508 0.000 -164.508 1.000 105.492 
41.231626 1.000 103.660 0.000 -166.340 0.000 -166.340 1.000 103.660 
42.585183 1.000 101.810 0.000 -168.190 0.000 -168.190 1.000 101.810 
43.983175 1.000 99.944 0.000 -170.056 0.000 -170.056 1.000 99.944 
45.427060 1.000 98.064 0.000 -171.936 0.000 -171.936 1.000 98.064 
46.918345 1.000 96.170 0.000 -173.830 0.000 -173.830 1.000 96.170 
48.458586 1.000 94.266 0.001 -175.734 0.001 -175.734 1.000 94.266 
50.049391 1.000 92.352 0.001 -177.648 0.001 -177.648 1.000 92.352 
51.692419 1.000 90.430 0.001 -179.570 0.001 -179.570 1.000 90.430 
53.389384 1.000 88.502 0.001 178.502 0.001 178.502 1.000 88.502 
55.142057 1.000 86.570 0.001 176.570 0.001 176.570 1.000 86.570 
56.952268 1.000 84.635 0.001 174.635 0.001 174.635 1.000 84.635 
58.821904 1.000 82.698 0.001 172.698 0.001 172.698 1.000 82.698 
60.752917 1.000 80.762 0.001 170.762 0.001 170.762 1.000 80.762 
62.747321 1.000 78.827 0.001 168.827 0.001 168.827 1.000 78.827 
64.807198 1.000 76.896 0.001 166.896 0.001 166.896 1.000 76.896 
66.934697 1.000 74.969 0.001 164.969 0.001 164.969 1.000 74.969 
69.132038 1.000 73.048 0.001 163.048 0.001 163.048 1.000 73.048 
71.401513 1.000 71.133 0.001 161.133 0.001 161.133 1.000 71.133 
73.745491 1.000 69.226 0.001 159.226 0.001 159.226 1.000 69.226 
76.166417 1.000 67.327 0.001 157.327 0.001 157.327 1.000 67.327 
78.666818 1.000 65.437 0.001 155.437 0.001 155.437 1.000 65.437 
81.249302 1.000 63.556 0.001 153.556 0.001 153.556 1.000 63.556 
83.916564 1.000 61.684 0.001 151.684 0.001 151.684 1.000 61.684 
86.671388 1.000 59.820 0.001 149.820 0.001 149.820 1.000 59.820 
89.516647 1.000 57.964 0.001 147.964 0.001 147.964 1.000 57.964 
92.455311 1.000 56.116 0.001 146.116 0.001 146.116 1.000 56.116 
95.490446 1.000 54.272 0.000 144.272 0.000 144.272 1.000 54.272 
98.625218 1.000 52.431 0.000 142.431 0.000 142.431 1.000 52.431 
101.862899 1.000 50.591 0.000 140.591 0.000 140.591 1.000 50.591 
105.206867 1.000 48.746 0.000 -41.254 0.000 -41.254 1.000 48.746 
108.660611 1.000 46.893 0.001 -43.107 0.001 -43.107 1.000 46.893 
112.227736 1.000 45.023 0.001 -44.977 0.001 -44.977 1.000 45.023 
115.911962 1.000 43.130 0.002 -46.870 0.002 -46.870 1.000 43.130 
119.717134 1.000 41.200 0.003 -48.800 0.003 -48.800 1.000 41.200 
123.647224 1.000 39.220 0.004 -50.780 0.004 -50.780 1.000 39.220 
127.706330 1.000 37.167 0.006 -52.833 0.006 -52.833 1.000 37.167 
131.898690 1.000 35.014 0.008 -54.986 0.008 -54.986 1.000 35.014 
136.228676 1.000 32.718 0.011 -57.282 0.011 -57.282 1.000 32.718 
140.700809 1.000 30.219 0.016 -59.781 0.016 -59.781 1.000 30.219 
145.319752 1.000 27.421 0.022 -62.579 0.022 -62.579 1.000 27.421 
150.090328 0.999 24.167 0.032 -65.833 0.032 -65.833 0.999 24.167 
155.017512 0.999 20.180 0.049 -69.820 0.049 -69.820 0.999 20.180 
160.106446 0.997 14.906 0.079 -75.094 0.079 -75.094 0.997 14.906 
165.362441 0.990 7.070 0.139 -82.930 0.139 -82.930 0.990 7.070 
170.790980 0.960 -7.078 0.281 -97.078 0.281 -97.078 0.960 -7.078 
176.397728 0.734 -41.989 0.680 -131.989 0.680 -131.989 0.734 -41.989 
182.188534 0.142 68.801 0.990 158.801 0.990 158.801 0.142 68.801 
188.169442 0.417 24.647 0.909 114.647 0.909 114.647 0.417 24.647 
194.346693 0.027 -20.605 1.000 69.395 1.000 69.395 0.027 -20.605 
200.726730 0.715 101.193 0.699 11.193 0.699 11.193 0.715 101.193 
207.316213 0.933 71.229 0.360 -18.771 0.360 -18.771 0.933 71.229 
214.122015 0.977 57.740 0.213 -32.260 0.213 -32.260 0.977 57.740 
221.151240 0.990 50.120 0.142 -39.880 0.142 -39.880 0.990 50.120 
228.411221 0.995 45.072 0.103 -44.928 0.103 -44.928 0.995 45.072 
235.909533 0.997 41.372 0.079 -48.628 0.079 -48.628 0.997 41.372 
243.654001 0.998 38.474 0.063 -51.526 0.063 -51.526 0.998 38.474 
251.652705 0.999 36.095 0.052 -53.905 0.052 -53.905 0.999 36.095 
259.913992 0.999 34.074 0.044 -55.926 0.044 -55.926 0.999 34.074 
268.446481 0.999 32.315 0.038 -57.685 0.038 -57.685 0.999 32.315 
277.259076 0.999 30.754 0.033 -59.246 0.033 -59.246 0.999 30.754 
286.360972 1.000 29.348 0.029 -60.652 0.029 -60.652 1.000 29.348 
295.761666 1.000 28.065 0.026 -61.935 0.026 -61.935 1.000 28.065 
305.470967 1.000 26.885 0.023 -63.115 0.023 -63.115 1.000 26.885 
315.499006 1.000 25.791 0.021 -64.209 0.021 -64.209 1.000 25.791 
325.856248 1.000 24.771 0.019 -65.229 0.019 -65.229 1.000 24.771 
336.553498 1.000 23.814 0.018 -66.186 0.018 -66.186 1.000 23.814 
347.601918 1.000 22.912 0.016 -67.088 0.016 -67.088 1.000 22.912 
359.013038 1.000 22.061 0.015 -67.939 0.015 -67.939 1.000 22.061 
370.798763 1.000 21.253 0.014 -68.747 0.014 -68.747 1.000 21.253 
382.971391 1.000 20.486 0.013 -69.514 0.013 -69.514 1.000 20.486 
395.543624 1.000 19.756 0.012 -70.244 0.012 -70.244 1.000 19.756 
408.528580 1.000 19.059 0.012 -70.941 0.012 -70.941 1.000 19.059 
421.939808 1.000 18.393 0.011 -71.607 0.011 -71.607 1.000 18.393 
435.791301 1.000 17.755 0.010 -72.245 0.010 -72.245 1.000 17.755 
450.097513 1.000 17.145 0.010 -72.855 0.010 -72.855 1.000 17.145 
464.873371 1.000 16.559 0.009 -73.441 0.009 -73.441 1.000 16.559 
480.134292 1.000 15.997 0.009 -74.003 0.009 -74.003 1.000 15.997 
495.896201 1.000 15.456 0.008 -74.544 0.008 -74.544 1.000 15.456 
512.175544 1.000 14.937 0.008 -75.063 0.008 -75.063 1.000 14.937 
528.989308 1.000 14.437 0.008 -75.563 0.008 -75.563 1.000 14.437 
546.355035 1.000 13.956 0.007 -76.044 0.007 -76.044 1.000 13.956 
564.290847 1.000 13.493 0.007 -76.507 0.007 -76.507 1.000 13.493 
582.815458 1.000 13.046 0.007 -76.954 0.007 -76.954 1.000 13.046 
601.948197 1.000 12.616 0.006 -77.384 0.006 -77.384 1.000 12.616 
621.709029 1.000 12.201 0.006 -77.799 0.006 -77.799 1.000 12.201 
642.118571 1.000 11.801 0.006 -78.199 0.006 -78.199 1.000 11.801 
663.198120 1.000 11.414 0.006 -78.586 0.006 -78.586 1.000 11.414 
684.969672 1.000 11.041 0.005 -78.959 0.005 -78.959 1.000 11.041 
707.455942 1.000 10.681 0.005 -79.319 0.005 -79.319 1.000 10.681 
730.680395 1.000 10.334 0.005 -79.666 0.005 -79.666 1.000 10.334 
754.667263 1.000 9.998 0.005 -80.002 0.005 -80.002 1.000 9.998 
779.441575 1.000 9.674 0.005 -80.326 0.005 -80.326 1.000 9.674 
805.029181 1.000 9.360 0.004 -80.640 0.004 -80.640 1.000 9.360 
831.456781 1.000 9.058 0.004 -80.942 0.004 -80.942 1.000 9.058 
858.751948 1.000 8.765 0.004 -81.235 0.004 -81.235 1.000 8.765 
886.943166 1.000 8.482 0.004 -81.518 0.004 -81.518 1.000 8.482 
916.059848 1.000 8.209 0.004 -81.791 0.004 -81.791 1.000 8.209 
946.132376 1.000 7.944 0.004 -82.056 0.004 -82.056 1.000 7.944 
977.192128 1.000 7.689 0.003 -82.311 0.003 -82.311 1.000 7.689 
1009.271515 1.000 7.441 0.003 -82.559 0.003 -82.559 1.000 7.441 
1042.404007 1.000 7.202 0.003 -82.798 0.003 -82.798 1.000 7.202 
1076.624177 1.000 6.971 0.003 -83.029 0.003 -83.029 1.000 6.971 
1111.967731 1.000 6.747 0.003 -83.253 0.003 -83.253 1.000 6.747 
1148.471548 1.000 6.531 0.003 -83.469 0.003 -83.469 1.000 6.531 
1186.173716 1.000 6.322 0.003 -83.678 0.003 -83.678 1.000 6.322 
1225.113577 1.000 6.119 0.003 -83.881 0.003 -83.881 1.000 6.119 
1265.331759 1.000 5.923 0.003 -84.077 0.003 -84.077 1.000 5.923 
1306.870230 1.000 5.734 0.003 -84.266 0.003 -84.266 1.000 5.734 
1349.772330 1.000 5.550 0.002 -84.450 0.002 -84.450 1.000 5.550 
1394.082826 1.000 5.373 0.002 -84.627 0.002 -84.627 1.000 5.373 
1439.847953 1.000 5.201 0.002 -84.799 0.002 -84.799 1.000 5.201 
1487.115463 1.000 5.035 0.002 -84.965 0.002 -84.965 1.000 5.035 
1535.934677 1.000 4.874 0.002 -85.126 0.002 -85.126 1.000 4.874 
1586.356534 1.000 4.719 0.002 -85.281 0.002 -85.281 1.000 4.719 
1638.433646 1.000 4.568 0.002 -85.432 0.002 -85.432 1.000 4.568 
1692.220352 1.000 4.422 0.002 -85.578 0.002 -85.578 1.000 4.422 
1747.772774 1.000 4.281 0.002 -85.719 0.002 -85.719 1.000 4.281 
1805.148879 1.000 4.145 0.002 -85.855 0.002 -85.855 1.000 4.145 
1864.408534 1.000 4.013 0.002 -85.987 0.002 -85.987 1.000 4.013 
1925.613572 1.000 3.885 0.002 -86.115 0.002 -86.115 1.000 3.885 
1988.827857 1.000 3.761 0.002 -86.239 0.002 -86.239 1.000 3.761 
2054.117348 1.000 3.641 0.002 -86.359 0.002 -86.359 1.000 3.641 
2121.550171 1.000 3.525 0.002 -86.475 0.002 -86.475 1.000 3.525 
2191.196688 1.000 3.413 0.001 -86.587 0.001 -86.587 1.000 3.413 
2263.129568 1.000 3.304 0.001 -86.696 0.001 -86.696 1.000 3.304 
2337.423871 1.000 3.199 0.001 -86.801 0.001 -86.801 1.000 3.199 
2414.157116 1.000 3.097 0.001 -86.903 0.001 -86.903 1.000 3.097 
2493.409370 1.000 2.998 0.001 -87.002 0.001 -87.002 1.000 2.998 
2575.263327 1.000 2.903 0.001 -87.097 0.001 -87.097 1.000 2.903 
2659.804396 1.000 2.810 0.001 -87.190 0.001 -87.190 1.000 2.810 
2747.120789 1.000 2.721 0.001 -87.279 0.001 -87.279 1.000 2.721 
2837.303617 1.000 2.634 0.001 -87.366 0.001 -87.366 1.000 2.634 
2930.446977 1.000 2.550 0.001 -87.450 0.001 -87.450 1.000 2.550 
3026.648059 1.000 2.469 0.001 -87.531 0.001 -87.531 1.000 2.469 
3126.007243 1.000 2.391 0.001 -87.609 0.001 -87.609 1.000 2.391 
3228.628203 1.000 2.315 0.001 -87.685 0.001 -87.685 1.000 2.315 
3334.618016 1.000 2.241 0.001 -87.759 0.001 -87.759 1.000 2.241 
3444.087276 1.000 2.170 0.001 -87.830 0.001 -87.830 1.000 2.170 
3557.150207 1.000 2.101 0.001 -87.899 0.001 -87.899 1.000 2.101 
3673.924782 1.000 2.034 0.001 -87.966 0.001 -87.966 1.000 2.034 
3794.532847 1.000 1.969 0.001 -88.031 0.001 -88.031 1.000 1.969 
3919.100249 1.000 1.907 0.001 -88.093 0.001 -88.093 1.000 1.907 
4047.756966 1.000 1.846 0.001 -88.154 0.001 -88.154 1.000 1.846 
4180.637241 1.000 1.787 0.001 -88.213 0.001 -88.213 1.000 1.787 
4317.879727 1.000 1.730 0.001 -88.270 0.001 -88.270 1.000 1.730 
4459.627627 1.000 1.675 0.001 -88.325 0.001 -88.325 1.000 1.675 
4606.028844 1.000 1.622 0.001 -88.378 0.001 -88.378 1.000 1.622 
4757.236139 1.000 1.570 0.001 -88.430 0.001 -88.430 1.000 1.570 
4913.407286 1.000 1.521 0.001 -88.479 0.001 -88.479 1.000 1.521 
5074.705239 1.000 1.472 0.001 -88.528 0.001 -88.528 1.000 1.472 
5241.298302 1.000 1.425 0.001 -88.575 0.001 -88.575 1.000 1.425 
5413.360303 1.000 1.380 0.001 -88.620 0.001 -88.620 1.000 1.380 
5591.070777 1.000 1.336 0.001 -88.664 0.001 -88.664 1.000 1.336 
5774.615152 1.000 1.294 0.001 -88.706 0.001 -88.706 1.000 1.294 
5964.184946 1.000 1.253 0.001 -88.747 0.001 -88.747 1.000 1.253 
6159.977960 1.000 1.213 0.001 -88.787 0.001 -88.787 1.000 1.213 
6362.198493 1.000 1.174 0.001 -88.826 0.001 -88.826 1.000 1.174 
6571.057546 1.000 1.137 0.000 -88.863 0.000 -88.863 1.000 1.137 
6786.773051 1.000 1.101 0.000 -88.899 0.000 -88.899 1.000 1.101 
7009.570091 1.000 1.066 0.000 -88.934 0.000 -88.934 1.000 1.066 
7239.681141 1.000 1.032 0.000 -88.968 0.000 -88.968 1.000 1.032 
7477.346305 1.000 0.999 0.000 -89.001 0.000 -89.001 1.000 0.999 
7722.813571 1.000 0.967 0.000 -89.033 0.000 -89.033 1.000 0.967 
7976.339068 1.000 0.937 0.000 -89.063 0.000 -89.063 1.000 0.937 
8238.187331 1.000 0.907 0.000 -89.093 0.000 -89.093 1.000 0.907 
8508.631583 1.000 0.878 0.000 -89.122 0.000 -89.122 1.000 0.878 
8787.954012 1.000 0.850 0.000 -89.150 0.000 -89.150 1.000 0.850 
9076.446073 1.000 0.823 0.000 -89.177 0.000 -89.177 1.000 0.823 
9374.408788 1.000 0.797 0.000 -89.203 0.000 -89.203 1.000 0.797 
9682.153060 1.000 0.772 0.000 -89.228 0.000 -89.228 1.000 0.772 
10000.000000 1.000 0.747 0.000 -89.253 0.000 -89.253 1.000 0.747 
